g3 3 1 0	# problem dualc1
 9 13 1 0 1	# vars, constraints, objectives, ranges, eqns
 0 1	# nonlinear constraints, objectives
 0 0	# network constraints: nonlinear, linear
 0 9 0	# nonlinear vars in constraints, objectives, both
 0 0 0 1	# linear network variables; functions; arith, flags
 0 0 0 0 0	# discrete variables: binary, integer, nonlinear (b,c,o)
 117 9	# nonzeros in Jacobian, gradients
 0 0	# max name lengths: constraints, variables
 0 0 0 0 0	# common exprs: b,c,o,c1,o1
b
0 0 1
0 0 1
0 0 1
0 0 1
0 0 1
0 0 1
0 0 1
0 0 1
0 0 1
x9
0 0
1 0
2 0
3 0
4 0
5 0
6 0
7 0
8 0
r
4 1
1 0
1 0
1 0
1 0
1 0
1 0
1 0
1 0
1 0
1 0
2 0
1 0
C0
n0
C1
n0
C2
n0
C3
n0
C4
n0
C5
n0
C6
n0
C7
n0
C8
n0
C9
n0
C10
n0
C11
n0
C12
n0
O0 0
o54
45
o2
o2
n7441
v0
v0
o2
o2
n4496
v0
v1
o2
o2
n5258
v0
v2
o2
o2
n5204
v0
v3
o2
o2
n8407
v0
v4
o2
o2
n8092
v0
v5
o16
o2
o2
n42247
v0
v6
o16
o2
o2
n116455
v0
v7
o2
o2
n51785
v0
v8
o2
o2
n32981.5
v1
v1
o16
o2
o2
n17504
v1
v2
o16
o2
o2
n17864
v1
v3
o16
o2
o2
n15854
v1
v4
o16
o2
o2
n14818
v1
v5
o16
o2
o2
n100219
v1
v6
o16
o2
o2
n101506
v1
v7
o2
o2
n25690
v1
v8
o2
o2
n8791
v2
v2
o2
o2
n17642
v2
v3
o2
o2
n15837
v2
v4
o2
o2
n17186
v2
v5
o2
o2
n27045
v2
v6
o16
o2
o2
n53251
v2
v7
o2
o2
n26765
v2
v8
o2
o2
n8869
v3
v3
o2
o2
n15435
v3
v4
o2
o2
n16898
v3
v5
o2
o2
n26625
v3
v6
o16
o2
o2
n56011
v3
v7
o2
o2
n27419
v3
v8
o2
o2
n17640.5
v4
v4
o2
o2
n48397
v4
v5
o2
o2
n48427
v4
v6
o2
o2
n29317
v4
v7
o2
o2
n12170
v4
v8
o2
o2
n46750
v5
v5
o2
o2
n5386
v5
v6
o16
o2
o2
n92344
v5
v7
o2
o2
n112416
v5
v8
o2
o2
n513890
v6
v6
o2
o2
n1744550
v6
v7
o16
o2
o2
n963140
v6
v8
o2
o2
n2600395
v7
v7
o16
o2
o2
n2306625
v7
v8
o2
o2
n695010
v8
v8
k8
13
26
39
52
65
78
91
104
J0 9
0 1
1 1
2 1
3 1
4 1
5 1
6 1
7 1
8 1
J1 9
0 -50
1 -38
2 -50
3 -50
4 -43
5 -53
6 83
7 208
8 -402
J2 9
0 -5
1 -5
2 -5
3 -5
4 -5
5 10
6 4
7 57
8 -59
J3 9
0 -64
1 -64
2 -64
3 -64
4 -56
5 105
6 89
7 227
8 -14
J4 9
0 -161
1 -111
2 -161
3 -161
4 37
5 24
6 44
7 301
8 -377
J5 9
0 -72
1 -64
2 -61
3 -61
4 -74
5 -55
6 41
7 96
8 -51
J6 9
0 -486
1 -486
2 -486
3 -486
4 -451
5 -459
6 -455
7 17
8 -655
J7 9
0 -183
1 -194
2 -194
3 -194
4 -181
5 -146
6 -121
7 562
8 -488
J8 9
0 -74
1 -23
2 -71
3 -71
4 -20
5 14
6 5
7 122
8 -17
J9 9
0 -37
1 -43
2 -39
3 -39
4 -39
5 -38
6 6
7 -45
8 -16
J10 9
0 -30
1 -19
2 -11
3 -11
4 -18
5 41
6 180
7 315
8 -7
J11 9
0 12
1 -19
2 -4
3 -4
4 -4
5 -33
6 -38
7 -67
8 9
J12 9
0 10
1 -12
2 -12
3 -43
4 -89
5 -91
6 -133
7 -568
8 156
G0 9
0 0
1 5765.7624165
2 3753.0154856
3 3753.4216509
4 11880.124847
5 29548.987048
6 423163.83666
7 3369558.8652
8 439695.6796
